50
21905

294 610
879 972
884 389
460 224
531 806
789 499
675 711
766 68
617 728
576 825
311 107
296 153
171 571
821 188
562 239
762 295
440 427
320 613
712 573
150 61
907 645
166 416
265 821
863 16
166 822
116 404
63 565
740 988
505 151
549 230
806 552
730 775
530 39
867 295
458 470
754 713
86 837
128 704
735 992
431 88
316 820
13 367
111 3
225 653
176 574
358 627
458 307
472 258
330 8
756 588
